c t pmc
c file mc2023_track3_011.cnf
p cnf 90 430
c p show 5 6 9 11 12 13 17 21 23 24 26 29 35 40 45 63 70 71 76 83 84 0
-1 0
-46 0
4 0
-49 0
-45 0
90 0
48 3 22 67 0
-19 -64 -39 -84 0
-84 19 39 -64 0
84 -39 64 -19 0
19 64 39 84 0
-64 -73 -28 -19 0
-64 19 43 -88 0
-17 -37 82 62 0
37 -82 17 -62 0
-17 -62 -37 -82 0
-65 20 18 -63 0
-89 18 -63 44 0
-76 31 18 -63 0
79 34 85 40 0
-84 39 33 -78 0
-22 -67 -70 -25 0
86 41 68 23 0
86 -41 68 -23 0
17 62 82 37 0
-86 41 -76 31 0
-80 -35 -20 -65 0
-80 35 -65 20 0
80 -35 -20 65 0
80 35 20 65 0
-83 -38 -20 -65 0
-83 38 -65 20 0
83 -38 -20 65 0
83 38 20 65 0
-20 -65 -29 -74 0
-61 43 -88 16 0
-61 -16 -42 -87 0
-61 -16 -66 -21 0
-61 16 -66 21 0
61 -16 66 -21 0
61 16 66 21 0
-32 -19 -77 -64 0
-64 -77 19 32 0
-19 64 77 -32 0
32 77 64 19 0
-67 -48 22 3 0
-22 67 48 -3 0
-81 -36 -48 -3 0
-81 36 -48 3 0
81 -36 48 -3 0
81 36 48 3 0
-48 -3 -53 -8 0
-48 3 -53 8 0
-17 -62 -58 -13 0
17 -62 13 -58 0
-17 62 58 -13 0
17 62 13 58 0
-58 -71 -26 -13 0
-12 58 -13 57 0
-12 74 -29 57 0
-37 -12 57 82 0
-20 -65 -11 -56 0
-58 -13 -11 -56 0
64 -19 60 -15 0
-25 70 -15 60 0
-17 -62 -68 -23 0
22 67 66 21 0
17 -62 -68 23 0
-17 62 68 -23 0
17 62 68 23 0
-17 -62 -20 -65 0
17 -62 -65 20 0
-17 62 -20 65 0
17 62 20 65 0
-17 -62 -61 -16 0
17 -62 -61 16 0
-17 62 61 -16 0
17 62 61 16 0
-61 -16 -37 -82 0
37 -82 -61 16 0
61 -37 82 -16 0
61 16 82 37 0
48 -3 76 -31 0
3 48 76 31 0
-22 -67 -48 -3 0
76 31 30 75 0
-75 43 -88 30 0
86 -41 83 -38 0
-86 41 -83 38 0
-86 -41 -83 -38 0
75 -30 76 -31 0
-83 -38 -30 -75 0
-75 -76 30 31 0
-31 -30 -76 -75 0
-79 -34 -85 -40 0
36 81 80 35 0
-86 -41 -39 -84 0
81 -36 80 -35 0
-81 36 -80 35 0
-35 -81 -80 -36 0
-84 43 -88 39 0
-76 -31 -42 -87 0
86 41 76 31 0
86 -41 76 -31 0
84 86 -39 -41 0
80 -35 77 -32 0
-80 35 -77 32 0
-80 -35 -77 -32 0
81 36 82 37 0
-84 -86 39 41 0
81 -37 82 -36 0
-82 37 -81 36 0
-81 -36 -37 -82 0
86 41 83 38 0
86 41 39 84 0
-32 -71 -26 -77 0
72 27 82 37 0
-37 72 82 -27 0
-27 -72 -37 -82 0
37 -82 -72 27 0
37 -82 33 -78 0
79 -34 85 -40 0
-79 34 -85 40 0
84 -22 -39 67 0
25 -70 33 -78 0
-84 22 39 -67 0
-22 -67 -39 -84 0
22 67 70 25 0
-22 67 70 -25 0
-67 22 -70 25 0
-22 67 81 -36 0
81 36 22 67 0
-87 -66 -42 -21 0
-30 -75 -66 -21 0
30 -75 -66 21 0
75 -30 66 -21 0
30 75 66 21 0
-72 -27 -66 -21 0
-72 27 -66 21 0
-27 72 66 -21 0
72 27 66 21 0
-22 -67 -66 -21 0
22 -67 -66 21 0
-22 67 66 -21 0
80 35 77 32 0
-86 -41 -76 -31 0
-65 29 -74 20 0
74 -20 -29 65 0
20 65 29 74 0
72 27 24 69 0
-24 -69 -26 -71 0
-30 -75 -24 -69 0
-75 30 24 -69 0
75 -30 -24 69 0
30 75 24 69 0
-68 -23 -39 -84 0
-84 -68 39 23 0
84 68 -39 -23 0
68 23 39 84 0
-86 -41 -68 -23 0
-86 41 -68 23 0
-67 -81 22 36 0
-22 -67 -81 -36 0
22 67 39 84 0
30 75 70 25 0
75 -30 70 -25 0
-75 30 -70 25 0
-30 -75 -70 -25 0
36 81 70 25 0
-75 -83 30 38 0
75 83 -30 -38 0
83 38 30 75 0
-74 -78 33 29 0
-80 -35 -29 -74 0
-80 35 29 -74 0
-7 52 85 -40 0
7 52 85 40 0
-7 -12 57 52 0
-67 -22 -6 -51 0
-67 22 6 -51 0
-22 67 -6 51 0
48 -3 53 -8 0
-35 -80 -6 -51 0
80 -35 -6 51 0
80 35 6 51 0
-6 51 -15 60 0
-55 -10 -6 -51 0
-51 -55 6 10 0
51 55 -6 -10 0
55 10 6 51 0
-85 -71 -26 -40 0
-36 -81 -70 -25 0
-81 36 -70 25 0
81 -36 70 -25 0
-27 72 -24 69 0
-72 27 24 -69 0
-27 -72 -24 -69 0
83 38 24 69 0
83 -38 -24 69 0
-83 38 24 -69 0
-83 -38 -24 -69 0
74 50 -29 -5 0
5 50 29 74 0
3 48 50 5 0
29 -74 -53 8 0
-29 74 53 -8 0
29 74 53 8 0
-83 -38 -7 -52 0
-83 38 7 -52 0
83 -38 -7 52 0
83 38 7 52 0
-19 -64 -7 -52 0
-52 7 19 -64 0
52 -7 64 -19 0
7 52 19 64 0
-79 -34 -7 -52 0
-79 34 7 -52 0
79 -34 -7 52 0
79 34 7 52 0
-87 -7 -42 -52 0
-7 -52 -85 -40 0
7 -52 -85 40 0
3 48 53 8 0
-80 35 6 -51 0
-41 -86 -48 -3 0
-86 41 -48 3 0
-41 86 48 -3 0
86 41 48 3 0
-62 -17 -2 -47 0
-62 17 2 -47 0
-17 62 -2 47 0
17 62 2 47 0
-2 -47 -53 -8 0
2 -47 -53 8 0
-2 47 53 -8 0
2 47 53 8 0
-79 -34 -2 -47 0
-47 -79 2 34 0
47 79 -2 -34 0
79 34 2 47 0
-5 -50 -73 -28 0
-5 -50 -29 -74 0
-50 29 -74 5 0
55 10 61 16 0
-48 -3 -76 -31 0
-48 3 -76 31 0
14 59 53 8 0
59 -14 53 -8 0
14 -59 -53 8 0
-14 -59 -53 -8 0
-53 8 44 -89 0
-9 54 60 -15 0
-55 -10 -76 -31 0
-55 10 -76 31 0
55 -10 76 -31 0
-69 -11 -24 -56 0
55 10 76 31 0
-55 -10 -14 -59 0
-55 10 -59 14 0
55 -10 59 -14 0
55 10 14 59 0
-32 -55 -77 -10 0
-55 10 -77 32 0
2 -47 44 -89 0
-47 -68 2 23 0
47 68 -2 -23 0
68 23 2 47 0
-47 2 18 -63 0
-38 -83 -50 -5 0
-83 38 -50 5 0
-38 83 50 -5 0
83 38 50 5 0
-5 -50 -77 -32 0
-50 5 -77 32 0
50 -5 77 -32 0
5 50 77 32 0
-50 -5 -70 -25 0
25 -50 -70 5 0
-25 50 70 -5 0
50 5 70 25 0
-3 -48 -50 -5 0
-48 3 -50 5 0
48 -3 50 -5 0
66 -21 54 -9 0
55 -10 61 -16 0
-55 10 -61 16 0
-29 -74 -53 -8 0
-53 -8 -11 -56 0
-35 80 -29 74 0
80 35 29 74 0
-85 -73 -28 -40 0
79 34 72 27 0
79 -27 72 -34 0
27 -72 -79 34 0
-79 -34 -27 -72 0
-72 -78 33 27 0
-32 -77 -73 -28 0
22 67 6 51 0
-27 -72 -6 -51 0
-51 -72 6 27 0
-27 -6 72 51 0
6 51 72 27 0
51 -6 54 -9 0
-68 -23 -2 -47 0
55 -10 77 -32 0
32 55 77 10 0
-23 -68 -55 -10 0
-68 23 -55 10 0
-23 55 68 -10 0
68 23 55 10 0
-55 -10 -61 -16 0
-59 14 18 -63 0
-14 -59 -85 -40 0
14 -59 -85 40 0
59 -14 85 -40 0
14 59 85 40 0
-79 -34 -14 -59 0
-59 -79 14 34 0
79 59 -14 -34 0
79 34 59 14 0
43 -88 -58 13 0
85 -40 54 -9 0
-24 69 54 -9 0
31 76 63 0
-31 -76 -18 0
52 -7 87 0
-52 7 42 0
64 19 88 0
-82 -37 -33 0
-84 -39 -33 0
84 39 78 0
-30 -75 -43 0
-51 -6 -60 0
-61 -16 -43 0
51 6 15 0
16 61 88 0
-61 16 42 0
61 -16 87 0
47 2 63 0
76 -31 87 0
-47 -2 -18 0
-19 -64 -60 0
-50 5 28 0
50 -5 73 0
2 47 89 0
-76 31 42 0
58 -13 71 0
58 13 88 0
28 44 -89 0
-13 -58 -57 0
-73 -28 -44 0
-27 -72 -33 0
58 13 12 0
44 -89 42 0
-6 -51 -54 0
6 51 9 0
-87 -42 -44 0
30 75 88 0
32 -77 28 0
13 -58 26 0
-32 77 73 0
-64 19 28 0
64 -19 73 0
-64 -19 -43 0
65 20 63 0
37 82 78 0
-20 -65 -18 0
7 52 12 0
-7 -52 -57 0
40 -85 26 0
-21 66 87 0
21 -66 42 0
-77 32 26 0
77 -32 71 0
-39 -84 -43 0
19 64 15 0
-13 58 56 0
13 -58 11 0
-25 -70 -60 0
-20 65 56 0
-65 20 11 0
-37 -82 -57 0
74 29 12 0
72 27 78 0
39 84 88 0
40 -85 28 0
-29 -74 -57 0
82 37 12 0
-40 85 73 0
59 14 63 0
-14 -59 -18 0
25 70 15 0
-2 -47 -44 0
29 74 78 0
69 -24 71 0
-58 -13 -43 0
-69 24 26 0
40 85 9 0
-74 -29 -33 0
-85 -40 -54 0
69 24 9 0
-69 -24 -54 0
66 21 9 0
-66 -21 -54 0
53 -8 56 0
8 -53 11 0
-70 -25 -33 0
53 8 89 0
70 25 78 0
-53 -8 -44 0
60 -15 56 0
-11 -56 -60 0
-24 69 56 0
24 -69 11 0
85 -40 71 0
9 -54 0
15 -60 0
73 28 0
89 -44 0
11 56 0
-43 88 0
-33 78 0
63 -18 0
15 9 0
71 26 0
-60 -54 0
87 42 0
-57 12 0
63 89 0
-18 -44 0
